(declare-fun var0 () String)
(assert (str.in.re var0 (re.++ (re.union (re.* (str.to.re "aaa")) (re.+ (str.to.re "b"))) (re.++ (re.* (re.* (str.to.re "99"))) (re.++ (re.union (re.* (str.to.re "7")) (re.* (str.to.re "888"))) (re.++ (re.+ (re.+ (str.to.re "666"))) (re.++ (re.* (re.+ (str.to.re "5"))) (re.++ (re.* (re.+ (str.to.re "44"))) (re.++ (re.+ (re.+ (str.to.re "33"))) (re.++ (re.* (re.* (str.to.re "222"))) (re.++ (re.+ (re.* (str.to.re "1"))) (re.* (re.* (str.to.re "0"))))))))))))))
(assert (str.in.re var0 (re.++ (re.+ (re.+ (str.to.re "ll"))) (re.++ (re.union (re.* (str.to.re "j")) (re.* (str.to.re "k"))) (re.++ (re.+ (re.union (str.to.re "hh") (str.to.re "iii"))) (re.++ (re.union (re.* (str.to.re "ee")) (re.union (str.to.re "f") (str.to.re "g"))) (re.++ (re.union (re.* (str.to.re "bbb")) (re.union (str.to.re "ccc") (str.to.re "d"))) (re.++ (re.* (re.union (str.to.re "999") (str.to.re "aaa"))) (re.++ (re.union (re.union (str.to.re "55") (str.to.re "666")) (re.union (str.to.re "777") (str.to.re "888"))) (re.++ (re.+ (re.union (str.to.re "3") (str.to.re "4"))) (re.++ (re.+ (re.+ (str.to.re "222"))) (re.+ (re.union (str.to.re "00") (str.to.re "1"))))))))))))))
(assert (str.in.re var0 (re.++ (re.union (re.* (str.to.re "jjj")) (re.* (str.to.re "k"))) (re.++ (re.union (re.union (str.to.re "fff") (str.to.re "g")) (re.union (str.to.re "hhh") (str.to.re "iii"))) (re.++ (re.+ (re.+ (str.to.re "eee"))) (re.++ (re.+ (re.union (str.to.re "c") (str.to.re "ddd"))) (re.++ (re.* (re.+ (str.to.re "bbb"))) (re.++ (re.union (re.union (str.to.re "8") (str.to.re "999")) (re.+ (str.to.re "aa"))) (re.++ (re.union (re.* (str.to.re "55")) (re.union (str.to.re "6") (str.to.re "777"))) (re.++ (re.* (re.union (str.to.re "333") (str.to.re "44"))) (re.++ (re.union (re.+ (str.to.re "11")) (re.+ (str.to.re "2"))) (re.+ (re.+ (str.to.re "000"))))))))))))))
(assert (str.in.re var0 (re.++ (re.* (re.+ (str.to.re "ee"))) (re.++ (re.* (re.+ (str.to.re "d"))) (re.++ (re.* (re.* (str.to.re "cc"))) (re.++ (re.+ (re.union (str.to.re "a") (str.to.re "b"))) (re.++ (re.* (re.* (str.to.re "9"))) (re.++ (re.union (re.+ (str.to.re "777")) (re.* (str.to.re "88"))) (re.++ (re.union (re.* (str.to.re "5")) (re.+ (str.to.re "6"))) (re.++ (re.union (re.+ (str.to.re "333")) (re.* (str.to.re "44"))) (re.++ (re.+ (re.+ (str.to.re "22"))) (re.* (re.union (str.to.re "000") (str.to.re "11"))))))))))))))
(assert (str.in.re var0 (re.++ (re.union (re.union (str.to.re "c") (str.to.re "ddd")) (re.union (str.to.re "eee") (str.to.re "fff"))) (re.++ (re.* (re.+ (str.to.re "bb"))) (re.++ (re.+ (re.+ (str.to.re "aa"))) (re.++ (re.* (re.+ (str.to.re "999"))) (re.++ (re.+ (re.* (str.to.re "88"))) (re.++ (re.+ (re.union (str.to.re "666") (str.to.re "7"))) (re.++ (re.union (re.union (str.to.re "33") (str.to.re "44")) (re.+ (str.to.re "55"))) (re.++ (re.+ (re.+ (str.to.re "2"))) (re.++ (re.* (re.+ (str.to.re "1"))) (re.+ (re.* (str.to.re "0"))))))))))))))
(assert (str.in.re var0 (re.++ (re.* (re.union (str.to.re "g") (str.to.re "hhh"))) (re.++ (re.+ (re.+ (str.to.re "f"))) (re.++ (re.* (re.* (str.to.re "e"))) (re.++ (re.+ (re.union (str.to.re "c") (str.to.re "dd"))) (re.++ (re.union (re.+ (str.to.re "aaa")) (re.* (str.to.re "b"))) (re.++ (re.union (re.+ (str.to.re "8")) (re.+ (str.to.re "99"))) (re.++ (re.union (re.* (str.to.re "666")) (re.+ (str.to.re "7"))) (re.++ (re.* (re.+ (str.to.re "5"))) (re.++ (re.union (re.* (str.to.re "222")) (re.union (str.to.re "33") (str.to.re "44"))) (re.* (re.union (str.to.re "00") (str.to.re "11"))))))))))))))
(assert (str.in.re var0 (re.++ (re.union (re.* (str.to.re "d")) (re.+ (str.to.re "eee"))) (re.++ (re.+ (re.+ (str.to.re "ccc"))) (re.++ (re.* (re.union (str.to.re "aaa") (str.to.re "bb"))) (re.++ (re.+ (re.* (str.to.re "999"))) (re.++ (re.* (re.+ (str.to.re "8"))) (re.++ (re.+ (re.union (str.to.re "666") (str.to.re "77"))) (re.++ (re.* (re.+ (str.to.re "5"))) (re.++ (re.* (re.* (str.to.re "4"))) (re.++ (re.union (re.* (str.to.re "11")) (re.union (str.to.re "222") (str.to.re "33"))) (re.* (re.* (str.to.re "00"))))))))))))))
(assert (str.in.re var0 (re.++ (re.union (re.union (str.to.re "e") (str.to.re "f")) (re.* (str.to.re "ggg"))) (re.++ (re.+ (re.+ (str.to.re "dd"))) (re.++ (re.union (re.* (str.to.re "b")) (re.* (str.to.re "c"))) (re.++ (re.+ (re.* (str.to.re "aa"))) (re.++ (re.* (re.union (str.to.re "888") (str.to.re "99"))) (re.++ (re.+ (re.* (str.to.re "777"))) (re.++ (re.+ (re.* (str.to.re "66"))) (re.++ (re.union (re.union (str.to.re "222") (str.to.re "333")) (re.union (str.to.re "44") (str.to.re "5"))) (re.++ (re.* (re.+ (str.to.re "1"))) (re.+ (re.+ (str.to.re "000"))))))))))))))
(check-sat)